
Gurobi 12.0.2 (mac64[arm]) logging started Fri Jun 13 19:32:46 2025

Set parameter LogFile to value "/Users/yurunfeng/Documents/GitHub/LRGTS-store-location/result/gurobi/snyder/150nodes/150-0.85-4.log"
Gurobi Optimizer version 12.0.2 build v12.0.2rc0 (mac64[arm] - Darwin 24.5.0 24F74)

CPU model: Apple M4
Thread count: 10 physical cores, 10 logical processors, using up to 10 threads

Non-default parameters:
TimeLimit  1200

Optimize a model with 3510600 rows, 6795450 columns and 32209486 nonzeros
Model fingerprint: 0x07c747de
Variable types: 3397650 continuous, 3397800 integer (3397800 binary)
Coefficient statistics:
  Matrix range     [2e-01, 1e+00]
  Objective range  [9e+01, 8e+06]
  Bounds range     [1e+00, 1e+00]
  RHS range        [1e+00, 4e+00]
Found heuristic solution: objective 6.624322e+07
Presolve removed 22800 rows and 22650 columns (presolve time = 5s)...
Presolve removed 22800 rows and 22650 columns (presolve time = 10s)...
Presolve removed 45300 rows and 22650 columns (presolve time = 15s)...
Presolve removed 45300 rows and 22650 columns (presolve time = 21s)...
Presolve removed 45300 rows and 22650 columns (presolve time = 25s)...
Presolve removed 45300 rows and 22650 columns (presolve time = 30s)...
Presolve removed 45300 rows and 22650 columns (presolve time = 40s)...
Presolve removed 45300 rows and 22650 columns (presolve time = 45s)...
Presolve removed 45300 rows and 22650 columns (presolve time = 50s)...
Presolve removed 45300 rows and 22650 columns (presolve time = 80s)...
Presolve removed 45300 rows and 22650 columns (presolve time = 87s)...
Presolve removed 45300 rows and 22650 columns (presolve time = 90s)...
Presolve removed 45300 rows and 22650 columns
Presolve time: 90.47s
Presolved: 3465300 rows, 6772800 columns, 29017362 nonzeros
Variable types: 3375000 continuous, 3397800 integer (3397800 binary)
Deterministic concurrent LP optimizer: primal simplex, dual simplex, and barrier
Showing barrier log only...

Root barrier log...

Elapsed ordering time = 14s
Elapsed ordering time = 15s
Elapsed ordering time = 20s
Ordering time: 21.20s

Barrier performed 0 iterations in 125.12 seconds (266.09 work units)
Barrier solve interrupted - model solved by another algorithm

Concurrent spin time: 7.70s (can be avoided by choosing Method=3)

Solved with dual simplex

Root simplex log...

Iteration    Objective       Primal Inf.    Dual Inf.      Time
   30010    2.3976733e+06   0.000000e+00   0.000000e+00    125s

Root relaxation: objective 2.397673e+06, 30010 iterations, 32.33 seconds (52.48 work units)

    Nodes    |    Current Node    |     Objective Bounds      |     Work
 Expl Unexpl |  Obj  Depth IntInf | Incumbent    BestBd   Gap | It/Node Time

     0     0 2397673.32    0 3335 6.6243e+07 2397673.32  96.4%     -  137s
H    0     0                    3228387.0743 2397673.32  25.7%     -  179s
H    0     0                    3000030.5392 2397673.32  20.1%     -  345s
H    0     0                    2975702.3422 2397673.32  19.4%     -  374s
     0     0 2435264.90    0 6778 2975702.34 2435264.90  18.2%     -  575s
     0     0 2439853.35    0 6550 2975702.34 2439853.35  18.0%     -  826s
     0     0 2440128.52    0 6658 2975702.34 2440128.52  18.0%     -  857s
     0     0 2440134.06    0 6753 2975702.34 2440134.06  18.0%     -  884s
     0     0 2440134.06    0 6780 2975702.34 2440134.06  18.0%     -  907s
     0     0          -    0      2975702.34 2440134.06  18.0%     - 1200s

Cutting planes:
  Cover: 5
  Clique: 5
  MIR: 389
  Flow cover: 1383
  Zero half: 1
  RLT: 140
  Relax-and-lift: 1

Explored 1 nodes (137689 simplex iterations) in 1200.53 seconds (1774.13 work units)
Thread count was 10 (of 10 available processors)

Solution count 4: 2.9757e+06 3.00003e+06 3.22839e+06 6.62432e+07 

Time limit reached
Best objective 2.975702342197e+06, best bound 2.440134063744e+06, gap 17.9980%
